\* Problem: Unknown *\

Maximize
 obj: + 7900000 r4_z1_d1 + 100000 r5_z1_d2 + 100000 r4_z1_d3
 + 300000 r4_volGoal + 100000 r5_volGoal - 10000000 r4_s

Subject To
 r_0: + r4_s <= 0.417523613241438
 r_1: - r4_s + r4_volGoal + r4_z1_d3 + r4_z1_d1 - r5_z1_r4
 <= -0.417523613241438
 r_2: + r5_volGoal + r5_z1_d2 + r5_z1_r4 <= 10178.2292758005
 r_3: + r4_z1_d1 = 0.294624
 r_4: + r5_z1_d2 <= 267837.3216
 r_5: + r4_z1_d3 <= 267837.3216
 r_6: + r4_z1_d1 <= 428.4
 r_7: + r5_z1_r4 <= 2282
 r_8: + r4_volGoal = 428.4
 r_9: + r5_volGoal <= 2282

End
